Minimize
  300 x_factory_1 + 600 x_factory_2
Subject To
  c1: 5 x_factory_1 + 10 x_factory_2 >= 20
  c2: 6 x_factory_1 + 10 x_factory_2 >= 5
  c3: 3 x_factory_1 >= 15
Integer
  x_factory_1 x_factory_2
End